25666
12,16,95,281,445,729,732,961,1019,1059,1068,1414,1521,1710,1925,2118,2131,2256,2488,2504,2722,2829,2858,3029,3067,3166,3172,3202,3207,3281,3360,3416,3436,3732,3912,4026,4044,4131,4375,4383,4392,4454,4484,4600,4746,4917,4942
